# 84371
param n := 25;
param s := 1;
set E :=  (0,19) (0,22) (1,5) (1,6) (1,14) (1,24) (2,9) (2,13) (2,21) (3,7) (3,9) (4,9) (6,7) (8,11) (8,12) (9,17) (10,15) (11,20) (11,21) (12,23) (13,14) (13,20) (14,17) (15,18) (15,19) (16,20) (16,23) (17,18) (17,22) (18,22) (18,23) (19,23) (21,22);
